WARNING: for repeatability, setting FPU to use double precision
============================[ Problem Statistics ]=============================
|                                                                             |
|  Number of variables:           264                                         |
|  Number of clauses:            1015                                         |
|  Parse time:                   0.00 s                                       |
|                                                                             |
============================[ Search Statistics ]==============================
| Conflicts |          ORIGINAL         |          LEARNT          | Progress |
|           |    Vars  Clauses Literals |    Limit  Clauses Lit/Cl |          |
===============================================================================
===============================================================================
restarts              : 1
conflicts             : 12             (inf /sec)
decisions             : 14             (0.00 % random) (inf /sec)
propagations          : 488            (inf /sec)
conflict literals     : 29             (45.28 % deleted)
Memory used           : 19.00 MB
CPU time              : 0 s

UNSATISFIABLE
